20
1 0 10
2 0 10
2 1 3
3 0 7
3 1 6
3 2 8
4 0 9
4 1 2
4 2 10
4 3 11
5 0 9
5 1 11
5 2 4
5 3 1
5 4 10
6 0 8
6 1 9
6 2 9
6 3 2
6 4 11
6 5 7
7 0 6
7 1 9
7 2 2
7 3 8
7 4 10
7 5 5
7 6 8
8 0 12
8 1 1
8 2 7
8 3 5
8 4 9
8 5 10
8 6 12
8 7 8
9 0 4
9 1 7
9 2 12
9 3 4
9 4 5
9 5 9
9 6 12
9 7 4
9 8 3
10 0 2
10 1 11
10 2 12
10 3 9
10 4 5
10 5 3
10 6 8
10 7 4
10 8 3
10 9 2
11 0 7
11 1 1
11 2 10
11 3 2
11 4 8
11 5 7
11 6 2
11 7 6
11 8 3
11 9 10
11 10 12
12 0 6
12 1 9
12 2 12
12 3 12
12 4 1
12 5 8
12 6 5
12 7 12
12 8 8
12 9 6
12 10 9
12 11 1
13 0 8
13 1 10
13 2 3
13 3 4
13 4 3
13 5 9
13 6 11
13 7 6
13 8 6
13 9 5
13 10 8
13 11 9
13 12 4
14 0 1
14 1 12
14 2 6
14 3 3
14 4 12
14 5 6
14 6 9
14 7 1
14 8 3
14 9 6
14 10 3
14 11 2
14 12 5
14 13 11
15 0 8
15 1 7
15 2 5
15 3 11
15 4 7
15 5 8
15 6 1
15 7 11
15 8 7
15 9 12
15 10 8
15 11 9
15 12 9
15 13 10
15 14 7
16 0 1
16 1 9
16 2 5
16 3 8
16 4 4
16 5 11
16 6 4
16 7 8
16 8 6
16 9 8
16 10 3
16 11 8
16 12 4
16 13 4
16 14 11
16 15 6
17 0 5
17 1 3
17 2 10
17 3 4
17 4 8
17 5 12
17 6 3
17 7 6
17 8 1
17 9 3
17 10 5
17 11 5
17 12 4
17 13 10
17 14 2
17 15 7
17 16 9
18 0 3
18 1 8
18 2 1
18 3 3
18 4 6
18 5 10
18 6 2
18 7 3
18 8 9
18 9 11
18 10 7
18 11 11
18 12 1
18 13 9
18 14 8
18 15 3
18 16 10
18 17 7
19 0 6
19 1 12
19 2 3
19 3 1
19 4 8
19 5 12
19 6 1
19 7 5
19 8 12
19 9 3
19 10 12
19 11 3
19 12 11
19 13 5
19 14 10
19 15 4
19 16 4
19 17 6
19 18 3
